149
100000
35797
14639
23597
1779
35273
63565
42779
32992
39535
67933
46908
6637
13025
11366
2301
3288
13726
17851
23464
4314
8920
32073
16930
31927
22873
48679
2923
58782
10958
24747
4224
10817
2368
11651
13228
33815
48825
6878
24009
71322
35537
49975
26215
34649
6415
38140
68859
43161
19221
10761
57221
12306
37
6721
33195
54255
62350
29623
11223
38759
6918
11029
39201
20583
54471
12250
49781
52326
15287
32275
2377
51559
12102
18358
67919
24259
56452
758
40724
816
73785
25557
662
34357
16770
53778
28815
46453
26290
25608
38742
63889
24351
12886
50219
3317
19197
72369
17652
26834
13905
73166
49252
9728
45845
70710
13949
16166
48106
59674
10032
37572
59462
56625
18260
51530
37317
53105
29290
73796
44006
60538
38989
15520
8729
56187
66310
33324
12252
17428
6487
27852
6861
59276
24059
27818
15485
58504
14295
7891
3700
17333
56940
29562
13431
1835
17506
42934
31141
